p edge 25 31
e 1 7
e 1 25
e 2 5
e 2 19
e 4 14
e 4 19
e 5 8
e 5 18
e 6 9
e 6 10
e 6 13
e 6 23
e 7 19
e 7 22
e 9 14
e 9 15
e 9 17
e 10 19
e 10 21
e 10 24
e 11 12
e 11 24
e 12 20
e 12 22
e 13 24
e 14 21
e 15 17
e 15 24
e 16 25
e 17 20
e 17 22
